
--- Job bchfcnet.gms Start 02/08/22 17:04:09 34.3.0 rac355f3 WEX-WEI x86 64bit/MS Windows
--- Applying:
    C:\GAMS\34\gmsprmNT.txt
--- GAMS Parameters defined
    Input C:\Users\dekhi\Desktop\gamsworld\FCNetLib\test\bchfcnet.gms
    PageSize 0
    ScrDir C:\Users\dekhi\Desktop\gamsworld\FCNetLib\test\225a\
    SysDir C:\GAMS\34\
    LogOption 3
    ErrMsg 1
    ErrorLog 99
    IDE 1
    ResLim 3600
    LstTitleLeftAligned 1
Licensee: Eval License                                   S211214|0002AW-GEN
          Ostfalia Hochschule fuer angewandte Wissenschaften        DCE1645
          C:\Users\dekhi\Documents\GAMS\gamslice.txt
          License Admin: Mohamed Ali Dekhil, dekhil.medali@gmail.com       
          Evaluation license: Not for commercial or production use
GAMS 34.3.0   Copyright (C) 1987-2021 GAMS Development. All rights reserved
--- Starting compilation
--- bchfcnet.gms(34) 2 Mb
--- . decl.gms(15) 2 Mb
--- bchfcnet.gms(38) 2 Mb
--- . h80x6320b.inc(185) 3 Mb
--- bchfcnet.gms(67) 3 Mb
--- . equs.gms(20) 3 Mb
--- bchfcnet.gms(97) 3 Mb
--- call rm -f bchout_i.gdx startcut.txt startheur.txt cuthist.gdx agap.txt rgap.txt cntfail.txt
--- bchfcnet.gms(118) 3 Mb
--- Starting execution: elapsed 0:00:00.088
--- bchfcnet.gms(243) 6 Mb
--- GDX File (execute_unload) C:\Users\dekhi\Desktop\gamsworld\FCNetLib\test\net.gdx
--- bchfcnet.gms(334) 6 Mb
--- GDXin=C:\Users\dekhi\Desktop\gamsworld\FCNetLib\test\points\h80x6320b.gdx
--- bchfcnet.gms(334) 7 Mb
--- GDX File (execute_load) C:\Users\dekhi\Desktop\gamsworld\FCNetLib\test\points\h80x6320b.gdx
--- Generating MIP model master
--- bchfcnet.gms(338) 11 Mb
---   6,480 rows  12,641 columns  44,083 non-zeroes
---   6,320 discrete-columns
--- Executing CPLEX (Solvelink=2): elapsed 0:00:00.313

IBM ILOG CPLEX   34.3.0 rac355f3 Released Feb 25, 2021 WEI x86 64bit/MS Window

--- GAMS/Cplex Link licensed for continuous and discrete problems.

Reading parameter(s) from "C:\Users\dekhi\Desktop\gamsworld\FCNetLib\test\cplex.op2"
>>  mipstart 1
Finished reading from "C:\Users\dekhi\Desktop\gamsworld\FCNetLib\test\cplex.op2"

--- Space for names approximately 0.40 Mb
--- Use option 'names no' to turn use of names off
--- GMO memory 4.71 Mb (peak 4.81 Mb)
--- Dictionary memory 0.00 Mb
--- Cplex 20.1.0.0 link memory 0.32 Mb (peak 1.39 Mb)
--- Starting Cplex

Version identifier: 20.1.0.0 | 2020-11-10 | 9bedb6d68
CPXPARAM_Threads                                 1
CPXPARAM_MIP_Display                             4
CPXPARAM_TimeLimit                               3600
CPXPARAM_MIP_Tolerances_AbsMIPGap                0
CPXPARAM_MIP_Tolerances_MIPGap                   0
Generic callback                                 0x50
Processing 1 MIP starts.
MIP start 'm1' defined solution with objective 6003.1794.
1 of 1 MIP starts provided solutions.
MIP start 'm1' defined initial solution with objective 6003.1794.
Tried aggregator 1 time.
MIP Presolve eliminated 153 rows and 159 columns.
MIP Presolve added 148 rows and 0 columns.
Reduced MIP has 6474 rows, 12482 columns, and 31353 nonzeros.
Reduced MIP has 6241 binaries, 0 generals, 0 SOSs, and 0 indicators.
Presolve time = 0.03 sec. (17.60 ticks)
Probing time = 0.00 sec. (6.31 ticks)
Tried aggregator 1 time.
Detecting symmetries...
Reduced MIP has 6474 rows, 12482 columns, and 31353 nonzeros.
Reduced MIP has 6241 binaries, 0 generals, 0 SOSs, and 0 indicators.
Presolve time = 0.03 sec. (20.40 ticks)
Probing time = 0.01 sec. (6.09 ticks)
Clique table members: 84.
MIP emphasis: balance optimality and feasibility.
MIP search method: dynamic search.
Parallel mode: none, using 1 thread.
Tried aggregator 1 time.
Aggregator did 790 substitutions.
Reduced LP has 5684 rows, 11692 columns, and 29773 nonzeros.
Presolve time = 0.00 sec. (8.03 ticks)
Initializing dual steep norms . . .

Iteration log . . .
Iteration:     1   Dual objective     =          4353.550674
Initializing dual steep norms . . .
Root relaxation solution time = 0.01 sec. (21.05 ticks)

        Nodes                                         Cuts/
   Node  Left     Objective  IInf  Best Integer    Best Bound    ItCnt     Gap

*     0+    0                         6003.1794        0.0000           100.00%
Found incumbent of value 6003.179413 after 0.13 sec. (101.69 ticks)
      0     0     5086.5470   115     6003.1794     5086.5470      170   15.27%
      0     0     5343.7650   103     6003.1794     Cuts: 198      249   10.98%
      0     0     5608.9228    54     6003.1794     Cuts: 125      296    6.57%
      0     0     5736.5350    58     6003.1794      Cuts: 69      331    4.44%
      0     0     5797.4965    65     6003.1794      Cuts: 70      359    3.43%
Detecting symmetries...

Repeating presolve.
Tried aggregator 1 time.
MIP Presolve eliminated 2275 rows and 4478 columns.
MIP Presolve modified 3875 coefficients.
Reduced MIP has 4199 rows, 8004 columns, and 20086 nonzeros.
Reduced MIP has 4002 binaries, 0 generals, 0 SOSs, and 0 indicators.
Presolve time = 0.02 sec. (12.17 ticks)
Probing time = 0.00 sec. (4.33 ticks)
Cover probing fixed 0 vars, tightened 26 bounds.
Tried aggregator 1 time.
Detecting symmetries...
MIP Presolve modified 26 coefficients.
Reduced MIP has 4199 rows, 8004 columns, and 20086 nonzeros.
Reduced MIP has 4002 binaries, 0 generals, 0 SOSs, and 0 indicators.
Presolve time = 0.03 sec. (12.53 ticks)
Represolve time = 0.06 sec. (55.06 ticks)
Probing time = 0.01 sec. (4.20 ticks)
Cover probing fixed 0 vars, tightened 1 bounds.
Clique table members: 85.
MIP emphasis: balance optimality and feasibility.
MIP search method: dynamic search.
Parallel mode: none, using 1 thread.
Tried aggregator 1 time.
Aggregator did 121 substitutions.
Reduced LP has 4374 rows, 7883 columns, and 52334 nonzeros.
Presolve time = 0.02 sec. (7.02 ticks)
Initializing dual steep norms . . .

Iteration log . . .
Iteration:     1   Dual objective     =          4353.550674
Iteration:   159   Dual objective     =          5427.509596
Initializing dual steep norms . . .
Root relaxation solution time = 0.05 sec. (21.03 ticks)

        Nodes                                         Cuts/
   Node  Left     Objective  IInf  Best Integer    Best Bound    ItCnt     Gap

*     0+    0                         6003.1794     5797.4965             3.43%
Found incumbent of value 6003.179413 after 0.59 sec. (574.37 ticks)
      0     0     5797.5054    75     6003.1794     5797.5054      642    3.43%
      0     0     5822.3538    58     6003.1794     Cuts: 118      700    3.01%
      0     0     5832.8517    64     6003.1794      Cuts: 74      747    2.84%
      0     0     5866.1567    74     6003.1794      Cuts: 80      805    2.28%
      0     0     5890.0169   102     6003.1794     Cuts: 105      879    1.89%
      0     0     5910.4045    76     6003.1794     Cuts: 130      942    1.55%
      0     0     5923.3950    69     6003.1794      Cuts: 79     1006    1.33%
      0     0     5936.5727    89     6003.1794      Cuts: 86     1074    1.11%
      0     0     5941.3195   102     6003.1794      Cuts: 74     1149    1.03%
      0     0     5948.1861   108     6003.1794     Cuts: 103     1251    0.92%
      0     0     5957.2848   104     6003.1794     Cuts: 106     1391    0.76%
      0     0     5964.1700   123     6003.1794     Cuts: 101     1501    0.65%
      0     0     5967.3853   129     6003.1794      Cuts: 92     1625    0.60%
      0     0     5971.8123   117     6003.1794     Cuts: 111     1741    0.52%
      0     0     5973.5800   106     6003.1794     Cuts: 109     1857    0.49%
      0     0     5975.0383    99     6003.1794      Cuts: 53     1960    0.47%
      0     0     5978.6240    99     6003.1794      Cuts: 84     2043    0.41%
      0     0     5979.2838    79     6003.1794      Cuts: 32     2116    0.40%
      0     0     5979.8170    73     6003.1794      Cuts: 38     2186    0.39%
      0     0     5980.7364   119     6003.1794      Cuts: 53     2262    0.37%
Detecting symmetries...
      0     2     5980.7364   119     6003.1794     5980.7915     2262    0.37%
Elapsed time = 1.83 sec. (1772.85 ticks, tree = 0.01 MB, solutions = 1)
     43    20     5988.5354    65     6003.1794     5982.8704     4044    0.34%
                                                     Cuts: 11                  
*    68    26      integral     0     6003.1794     5983.5638     5106    0.33%
                                                      Cuts: 5                  
Found incumbent of value 6003.179413 after 2.19 sec. (2199.38 ticks)
     73    27     5993.9784    79     6003.1794     5983.9962     5385    0.32%
                                                  Flowcuts: 1                  
    130    30        cutoff           6003.1794     5993.6760     7413    0.16%
                                                     Cuts: 21                  
    186    25        cutoff           6003.1794     5999.2810     8966    0.06%

Implied bound cuts applied:  124
Flow cuts applied:  332
Mixed integer rounding cuts applied:  86
Flow path cuts applied:  13
Gomory fractional cuts applied:  11

Root node processing (before b&c):
  Real time             =    1.81 sec. (1767.44 ticks)
Sequential b&c:
  Real time             =    0.88 sec. (1091.16 ticks)
                          ------------
Total (root+branch&cut) =    2.69 sec. (2858.60 ticks)

--- MIP status (101): integer optimal solution.
--- Cplex Time: 2.70sec (det. 2858.64 ticks)

--- Fixing integer variables and solving final LP...

Version identifier: 20.1.0.0 | 2020-11-10 | 9bedb6d68
CPXPARAM_Advance                                 2
CPXPARAM_Threads                                 1
CPXPARAM_MIP_Display                             4
CPXPARAM_TimeLimit                               3600
CPXPARAM_MIP_Tolerances_AbsMIPGap                0
CPXPARAM_MIP_Tolerances_MIPGap                   0
Tried aggregator 1 time.
LP Presolve eliminated 6479 rows and 12641 columns.
All rows and columns eliminated.
Presolve time = 0.00 sec. (4.71 ticks)

--- Fixed MIP status (1): optimal.
--- Cplex Time: 0.00sec (det. 7.89 ticks)


Proven optimal solution
MIP Solution:         6003.179413    (9427 iterations, 229 nodes)
Final Solve:          6003.179413    (0 iterations)

Best possible:        6003.179413
Absolute gap:            0.000000
Relative gap:            0.000000

--- Reading solution for model master
*** Status: Normal completion
--- Job bchfcnet.gms Stop 02/08/22 17:04:13 elapsed 0:00:03.139
